Route #1: 27 26 22 30 53 5 8 46 3 49 32 50 13 52 54 19 10 45 20 25 15 35 44 40 24 38 21 12 14 17 29 23 42 16 48 37 4 47 31 51 33 39 34 55 2 11 18 28 56 7 36 57 41 43 6 9
Route #2: 
Route #3: 1
Route #4: 
Route #5: 
Route #6: 
Route #7: 
Route #8: 
Route #9: 
cost 1908.9418616878663
